c generated by sgen
p cnf 117 244
-2 -3 -4 0
-1 -3 -4 0
-1 -2 -4 0
-1 -2 -3 0
-6 -7 -8 0
-5 -7 -8 0
-5 -6 -8 0
-5 -6 -7 0
-10 -11 -12 0
-9 -11 -12 0
-9 -10 -12 0
-9 -10 -11 0
-14 -15 -16 0
-13 -15 -16 0
-13 -14 -16 0
-13 -14 -15 0
-18 -19 -20 0
-17 -19 -20 0
-17 -18 -20 0
-17 -18 -19 0
-22 -23 -24 0
-21 -23 -24 0
-21 -22 -24 0
-21 -22 -23 0
-26 -27 -28 0
-25 -27 -28 0
-25 -26 -28 0
-25 -26 -27 0
-30 -31 -32 0
-29 -31 -32 0
-29 -30 -32 0
-29 -30 -31 0
-34 -35 -36 0
-33 -35 -36 0
-33 -34 -36 0
-33 -34 -35 0
-38 -39 -40 0
-37 -39 -40 0
-37 -38 -40 0
-37 -38 -39 0
-42 -43 -44 0
-41 -43 -44 0
-41 -42 -44 0
-41 -42 -43 0
-46 -47 -48 0
-45 -47 -48 0
-45 -46 -48 0
-45 -46 -47 0
-50 -51 -52 0
-49 -51 -52 0
-49 -50 -52 0
-49 -50 -51 0
-54 -55 -56 0
-53 -55 -56 0
-53 -54 -56 0
-53 -54 -55 0
-58 -59 -60 0
-57 -59 -60 0
-57 -58 -60 0
-57 -58 -59 0
-62 -63 -64 0
-61 -63 -64 0
-61 -62 -64 0
-61 -62 -63 0
-66 -67 -68 0
-65 -67 -68 0
-65 -66 -68 0
-65 -66 -67 0
-70 -71 -72 0
-69 -71 -72 0
-69 -70 -72 0
-69 -70 -71 0
-74 -75 -76 0
-73 -75 -76 0
-73 -74 -76 0
-73 -74 -75 0
-78 -79 -80 0
-77 -79 -80 0
-77 -78 -80 0
-77 -78 -79 0
-82 -83 -84 0
-81 -83 -84 0
-81 -82 -84 0
-81 -82 -83 0
-86 -87 -88 0
-85 -87 -88 0
-85 -86 -88 0
-85 -86 -87 0
-90 -91 -92 0
-89 -91 -92 0
-89 -90 -92 0
-89 -90 -91 0
-94 -95 -96 0
-93 -95 -96 0
-93 -94 -96 0
-93 -94 -95 0
-98 -99 -100 0
-97 -99 -100 0
-97 -98 -100 0
-97 -98 -99 0
-102 -103 -104 0
-101 -103 -104 0
-101 -102 -104 0
-101 -102 -103 0
-106 -107 -108 0
-105 -107 -108 0
-105 -106 -108 0
-105 -106 -107 0
-110 -111 -112 0
-109 -111 -112 0
-109 -110 -112 0
-109 -110 -111 0
-113 -114 -115 0
-113 -114 -116 0
-113 -114 -117 0
-113 -115 -116 0
-113 -115 -117 0
-113 -116 -117 0
-114 -115 -116 0
-114 -115 -117 0
-114 -116 -117 0
-115 -116 -117 0
117 69 49 0
78 69 49 0
78 117 49 0
78 117 69 0
12 75 59 0
56 75 59 0
56 12 59 0
56 12 75 0
46 81 99 0
104 81 99 0
104 46 99 0
104 46 81 0
34 113 47 0
11 113 47 0
11 34 47 0
11 34 113 0
110 101 116 0
89 101 116 0
89 110 116 0
89 110 101 0
66 55 18 0
45 55 18 0
45 66 18 0
45 66 55 0
74 26 52 0
48 26 52 0
48 74 52 0
48 74 26 0
29 39 57 0
95 39 57 0
95 29 57 0
95 29 39 0
14 111 6 0
67 111 6 0
67 14 6 0
67 14 111 0
8 65 42 0
37 65 42 0
37 8 42 0
37 8 65 0
19 83 79 0
115 83 79 0
115 19 79 0
115 19 83 0
62 53 28 0
7 53 28 0
7 62 28 0
7 62 53 0
24 77 41 0
16 77 41 0
16 24 41 0
16 24 77 0
23 88 105 0
71 88 105 0
71 23 105 0
71 23 88 0
100 32 44 0
73 32 44 0
73 100 44 0
73 100 32 0
106 76 38 0
84 76 38 0
84 106 38 0
84 106 76 0
80 30 61 0
112 30 61 0
112 80 61 0
112 80 30 0
1 109 25 0
40 109 25 0
40 1 25 0
40 1 109 0
43 91 35 0
87 91 35 0
87 43 35 0
87 43 91 0
3 85 93 0
114 85 93 0
114 3 93 0
114 3 85 0
10 68 4 0
22 68 4 0
22 10 4 0
22 10 68 0
5 97 90 0
70 97 90 0
70 5 90 0
70 5 97 0
54 51 108 0
2 51 108 0
2 54 108 0
2 54 51 0
33 50 60 0
63 50 60 0
63 33 60 0
63 33 50 0
92 64 82 0
9 64 82 0
9 92 82 0
9 92 64 0
13 58 98 0
86 58 98 0
86 13 98 0
86 13 58 0
107 96 20 0
36 96 20 0
36 107 20 0
36 107 96 0
94 103 27 0
21 103 27 0
21 94 27 0
21 94 103 0
17 72 31 0
17 72 15 0
17 72 102 0
17 31 15 0
17 31 102 0
17 15 102 0
72 31 15 0
72 31 102 0
72 15 102 0
31 15 102 0
